
  22   10
  10   10   10   10   10   10   10   10   10   10

   0   0   0   0   0   0   0   0   0   0   0   2 2 4 
   9  10  10  10  10  10  10  10  10  10  10   1 3 
   7  10  10  10  10  10  10  10  10  10  10   2 8 5 
   1  10  10  10  10  10  10  10  10  10  10   2 8 5 
   1  10  10  10  10  10  10  10  10  10  10   1 6 
   1  10  10  10  10  10  10  10  10  10  10   3 21 11 7 
   9  10  10  10  10  10  10  10  10  10  10   2 20 9 
   9  10  10  10  10  10  10  10  10  10  10   3 21 20 12 
   3  10  10  10  10  10  10  10  10  10  10   1 10 
   4  10  10  10  10  10  10  10  10  10  10   1 12 
   7  10  10  10  10  10  10  10  10  10  10   1 12 
   9  10  10  10  10  10  10  10  10  10  10   1 13 
   6  10  10  10  10  10  10  10  10  10  10   1 14 
   9  10  10  10  10  10  10  10  10  10  10   2 18 15 
   8  10  10  10  10  10  10  10  10  10  10   1 16 
   5  10  10  10  10  10  10  10  10  10  10   1 17 
   6  10  10  10  10  10  10  10  10  10  10   1 19 
   5  10  10  10  10  10  10  10  10  10  10   1 19 
   1  10  10  10  10  10  10  10  10  10  10   1 22
   1  10  10  10  10  10  10  10  10  10  10   1 22
   4  10  10  10  10  10  10  10  10  10  10   1 22
   0   0   0   0   0   0   0   0   0   0   0   0 
